NAME: .\SDVRP instances\p11\p11_7090
BEST_KNOWN: 0
COMMENT: 0
DIMENSION: 121
CAPACITY: 200
EDGE_WEIGHT_FORMAT: FUNCTION
EDGE_WEIGHT_TYPE: EXACT_2D
NODE_COORD_SECTION
1 0 0
2 15 -44
3 15 -42
4 21 -40
5 22 -40
6 21 -38
7 22 -36
8 24 -36
9 36 -36
10 25 -38
11 24 -39
12 25 -40
13 37 -39
14 30 -40
15 29 -42
16 26 -42
17 63 -39
18 63 -37
19 14 -9
20 66 -39
21 66 -35
22 66 -32
23 68 -42
24 68 -36
25 69 -42
26 69 -40
27 69 -34
28 72 -42
29 72 -38
30 80 -30
31 74 -42
32 74 -40
33 74 -36
34 75 -44
35 77 -40
36 75 -37
37 77 -38
38 76 -4
39 76 -1
40 76 1
41 75 10
42 79 -2
43 79 1
44 79 7
45 82 -3
46 82 7
47 84 -3
48 84 -1
49 84 3
50 86 -3
51 89 1
52 89 5
53 73 35
54 73 38
55 75 36
56 75 40
57 75 44
58 77 35
59 77 41
60 80 32
61 80 43
62 83 37
63 83 39
64 83 44
65 84 41
66 85 35
67 89 44
68 27 38
69 40 35
70 25 40
71 25 42
72 34 41
73 36 44
74 36 38
75 36 42
76 36 44
77 38 38
78 40 40
79 40 43
80 44 41
81 44 45
82 0 -10
83 0 -5
84 8 -15
85 7 -10
86 6 -7
87 4 -5
88 5 -3
89 1 -3
90 8 -5
91 11 -6
92 10 -5
93 8 -4
94 10 -1
95 12 -1
96 6 0
97 10 0
98 15 0
99 20 10
100 10 5
101 12 6
102 8 4
103 6 3
104 10 10
105 8 8
106 4 5
107 5 6
108 6 9
109 18 -12
110 23 -7
111 20 5
112 3 -5
113 5 -9
114 8 -14
115 15 -8
116 20 1
117 15 7
118 6 -12
119 15 -10
120 -5 -5
121 -5 5
DEMAND_SECTION
1 0
2 174
3 155
4 149
5 162
6 176
7 174
8 159
9 144
10 148
11 141
12 172
13 155
14 158
15 160
16 168
17 151
18 143
19 160
20 174
21 161
22 144
23 165
24 166
25 163
26 171
27 169
28 141
29 171
30 146
31 144
32 174
33 172
34 173
35 148
36 173
37 159
38 171
39 159
40 159
41 173
42 147
43 142
44 165
45 166
46 175
47 151
48 159
49 157
50 173
51 164
52 166
53 166
54 143
55 176
56 169
57 169
58 152
59 168
60 156
61 153
62 175
63 150
64 152
65 151
66 154
67 159
68 174
69 143
70 179
71 174
72 177
73 175
74 173
75 179
76 142
77 153
78 163
79 168
80 162
81 172
82 166
83 151
84 167
85 165
86 179
87 171
88 179
89 172
90 174
91 144
92 172
93 163
94 147
95 177
96 167
97 171
98 170
99 157
100 170
101 144
102 166
103 171
104 170
105 178
106 157
107 148
108 143
109 162
110 152
111 176
112 176
113 166
114 140
115 152
116 167
117 155
118 154
119 173
120 170
121 177
DEPOT_SECTION
1
-1
EOF
